proyfinal/src/viki/013/experimentInOfficeAgust.take6.output/49273695-f551-47b8-9c8a-98674e16804c.als.out
Reading from standard input... Use '--help' for help.
============================[ Problem Statistics ]=============================
|                                                                             |
|  Number of variables:         87638                                         |
|  Number of clauses:          161767                                         |
|  Parse time:                   0.04 s                                       |
|                                                                             |
============================[ Search Statistics ]==============================
| Conflicts |          ORIGINAL         |          LEARNT          | Progress |
|           |    Vars  Clauses Literals |    Limit  Clauses Lit/Cl |          |
===============================================================================
|       100 |   62239   104640   261529 |    38368      100     51 | 28.982 % |
|       250 |   62239   104640   261529 |    42204      250    125 | 28.982 % |
|       475 |   62239   104640   261529 |    46425      475    111 | 28.982 % |
|       812 |   62239   104640   261529 |    51067      812    106 | 28.982 % |
|      1318 |   62239   104640   261529 |    56174     1318    104 | 28.982 % |
|      2077 |   43609    50285   128373 |    61792     1568     73 | 50.240 % |
===============================================================================
restarts              : 15
conflicts             : 3038           (8400 /sec)
decisions             : 9754           (0.00 % random) (26969 /sec)
propagations          : 4416996        (12212408 /sec)
conflict literals     : 185050         (41.17 % deleted)
Memory used           : 23.05 MB
CPU time              : 0.361681 s

UNSATISFIABLE
